clingo version 5.6.2
Reading from ...etition/0051-graph_colouring-150-0.asp ...
Solving...
UNSATISFIABLE

Models       : 0
Calls        : 1
Time         : 158.983s (Solving: 158.74s 1st Model: 0.00s Unsat: 158.74s)
CPU Time     : 158.902s

Choices      : 4048104 
Conflicts    : 3738977  (Analyzed: 3738976)
Restarts     : 8190     (Average: 456.53 Last: 40293)
Problems     : 1        (Average Length: 0.00 Splits: 0)
Lemmas       : 3738976  (Deleted: 3638662)
  Binary     : 438      (Ratio:   0.01%)
  Ternary    : 2898     (Ratio:   0.08%)
  Conflict   : 3738976  (Average Length:   28.2 Ratio: 100.00%) 
  Loop       : 0        (Average Length:    0.0 Ratio:   0.00%) 
  Other      : 0        (Average Length:    0.0 Ratio:   0.00%) 
Backjumps    : 3738976  (Average:  1.07 Max:   9 Sum: 3997150)
  Executed   : 3738976  (Average:  1.07 Max:   9 Sum: 3997150 Ratio: 100.00%)
  Bounded    : 0        (Average:  0.00 Max:   0 Sum:      0 Ratio:   0.00%)

Rules        : 22348   
Atoms        : 4062    
Bodies       : 1480    
Equivalences : 2925     (Atom=Atom: 17 Body=Body: 726 Other: 2182)
Tight        : Yes
Variables    : 883      (Eliminated:    0 Frozen:    0)
Constraints  : 8958     (Binary:  90.3% Ternary:   0.0% Other:   9.7%)

